(set-info :status unknown)
(declare-fun C () (_ BitVec 17))
(declare-fun %X () (_ BitVec 17))
(assert
 (let (($x548 (and (distinct (bvlshr (bvshl %X C) C) (bvand %X (bvlshr (_ bv131071 17) C))) true)))
 (let (($x22533 (bvult C (_ bv17 17))))
 (and $x22533 $x22533 $x548))))
(check-sat)
